10J3M/DAT/10J3MULX-11.dat
10 3
46.1283 6.7918
3.2141 1.7928
12.2869 3.5053
26.4829 5.1462
16.4851 4.0602
24.6516 4.965
43.0965 6.5648
25.5585 5.0555
48.9303 6.995
14.1907 3.7671
16.2146