10J3M/SOL/10J3MULX-11.sol
solution status: optimal solution found
objective value:                       96.25591439929
x#1#1                               0.119844469692339 	(obj:0)
x#1#3                               0.880155530307661 	(obj:0)
x#2#2                                               1 	(obj:0)
x#3#1                                               1 	(obj:0)
x#4#3                                               1 	(obj:0)
x#5#1                                               1 	(obj:0)
x#6#1                               0.103176387691084 	(obj:0)
x#6#3                               0.896823612308916 	(obj:0)
x#7#1                              0.0210932763114855 	(obj:0)
x#7#2                               0.978906723688515 	(obj:0)
x#8#1                                               1 	(obj:0)
x#9#2                               0.441649200598923 	(obj:0)
x#9#3                               0.558350799401077 	(obj:0)
x#10#2                              0.999971973094171 	(obj:0)
z                                      96.25591439929 	(obj:1)
